ADDGRID = .TRUE.
ALGO = NORMAL
EDIFF = 1e-06
EDIFFG = -0.02
ENCUT = 400.0
GGA = PE
IBRION = 2
ISIF = 3
ISMEAR = 0
ISPIN = 2
IVDW = 0
LASPH = .TRUE.
LCHARG = False
LORBIT = 10
LPLANE = .TRUE.
LREAL = AUTO
LWAVE = False
NCORE = 4
NEDOS = 101
NELM = 1000
NELMDL = -12
NELMIN = 6
NSW = 0
NWRITE = 1
POTIM = 0.25
PREC = Normal
SIGMA = 0.1
SYSTEM = C4
