test1
 1.0000000000000000
     1.2280000000000000   -2.1269583900000000    0.0000000000000000
     1.2280000000000000    2.1269583900000000    0.0000000000000000
     0.0000000000000000    0.0000000000000000    5.0000000000000000
 C  
   4
Direct
  0.0000000000000000  0.0000000000000000  0.2500000000000000
  0.0000000000000000  0.0000000000000000  0.7500000000000000
  0.3333333300000000  0.6666666700000000  0.2500000000000000
  0.6666666699999999  0.3333333299999999  0.7500000000000000
